unsat
(:SPACER-conj                         56
 :SPACER-inductive-gen                67
 :SPACER-inductive-gen-weaken-fail    67
 :SPACER-inductive-gen-weaken-success 58
 :SPACER-inductive-level              52
 :SPACER-max-depth                    52
 :SPACER-max-query-lvl                52
 :SPACER-non-local-gen                1321
 :SPACER-num-active-lemmas            108
 :SPACER-num-ctp-blocked              52
 :SPACER-num-invariants               56
 :SPACER-num-is_invariant             5561
 :SPACER-num-lemmas                   1440
 :SPACER-num-pobs                     113
 :SPACER-num-propagations             2765
 :SPACER-num-queries                  1379
 :added-eqs                           5380866
 :arith-assert-diseq                  1236112
 :arith-assert-lower                  3155350
 :arith-assert-upper                  26589484
 :arith-bound-prop                    71654
 :arith-conflicts                     1476
 :arith-eq-adapter                    742134
 :arith-fixed-eqs                     913064
 :arith-num-rows                      908
 :arith-offset-eqs                    216996
 :arith-pivots                        130758
 :arith-row-summations                1833300
 :arith-tableau-max-columns           1736
 :arith-tableau-max-rows              908
 :conflicts                           29378
 :decisions                           12543788
 :del-clause                          1848856
 :final-checks                        8566
 :iuc_solver.num_proxies              2823
 :max-memory                          185.14
 :memory                              171.66
 :minimized-lits                      295622
 :mk-bool-var                         1829576
 :mk-clause                           1960640
 :num-allocs                          1052703580506.00
 :num-checks                          22722
 :pool_solver.checks                  11361
 :pool_solver.checks.sat              116
 :pool_solver.checks.undef            4167
 :propagations                        48117540
 :rlimit-count                        164502961
 :time                                121.54
 :time.iuc_solver.get_iuc             9.54
 :time.iuc_solver.get_iuc.hyp_reduce1 4.12
 :time.iuc_solver.get_iuc.hyp_reduce2 6.42
 :time.iuc_solver.get_iuc.learn_core  1.09
 :time.pool_solver.proof              1.00
 :time.pool_solver.smt.total          96.44
 :time.pool_solver.smt.total.sat      0.13
 :time.pool_solver.smt.total.undef    52.56
 :time.spacer.ctp                     0.00
 :time.spacer.init_rules              0.00
 :time.spacer.mbp                     0.61
 :time.spacer.solve                   121.27
 :time.spacer.solve.propagate         62.24
 :time.spacer.solve.reach             59.03
 :time.spacer.solve.reach.children    2.33
 :time.spacer.solve.reach.cluster     5.39
 :time.spacer.solve.reach.gen.global  0.61
 :time.spacer.solve.reach.gen.ind     2.79
 :time.spacer.solve.reach.is-reach    0.12)
(:max-memory   185.14
 :memory       171.66
 :num-allocs   1052703580506.00
 :rlimit-count 164502961
 :time         121.54
 :total-time   121.55)
